0 4140
2401 4054
4802 3984
7203 3920
9604 3875
12005 3831
14406 3786
16807 3733
19208 3694
21609 3680
24010 3672
26411 3644
28812 3618
31213 3595
33614 3583
36015 3573
43218 3572
45619 3569
48020 3553
50421 3541
52822 3533
55223 3532
57624 3524
60025 3511
62426 3510
69629 3504
72030 3503
74431 3502
76832 3500
79233 3499
84035 3497
86436 3495
88837 3494
103243 3493
122451 3492
124852 3491
324135 3490
343343 3485
405769 3484
686686 3483
689087 3476
691488 3472
693889 3466
696290 3456
698691 3455
